c Problem 01 - Satisfiable instance
c Generated for SAT solver validation
c This problem has a satisfying assignment
p cnf 8 12
1 2 3 0
-1 4 0
-2 5 0
-3 6 0
4 7 0
5 8 0
-6 -7 0
-4 -5 0
1 -8 0
2 6 0
3 -4 0
7 8 0